\ SCIP STATISTICS
\   Problem name     : SetCover-100-150
\   Variables        : 150 (150 binary, 0 integer, 0 implicit integer, 0 continuous)
\   Constraints      : 100
Minimize
 Obj: +84 x0 +46 x1 +34 x2 +43 x3 +38 x4 +62 x5 +26 x6 +11 x7 +79 x8 +62 x9 +53 x10 +6 x11 +38 x12 +60 x13
      +96 x14 +88 x15 +51 x16 +34 x17 +59 x18 +20 x19 +12 x20 +60 x21 +76 x22 +91 x23 +44 x24 +2 x25 +16 x26
      +58 x27 +63 x28 +43 x29 +16 x30 +15 x31 +82 x32 +61 x33 +15 x34 +3 x35 +83 x36 +81 x37 +36 x38 +15 x39
      +90 x40 +57 x41 +34 x42 +54 x43 +43 x44 +91 x45 +66 x46 +61 x47 +32 x48 +94 x49 +59 x50 +12 x51
      +42 x52 +24 x53 +45 x54 +66 x55 +39 x56 +14 x57 +30 x58 +22 x59 +21 x60 +87 x61 +100 x62 +48 x63
      +30 x64 +93 x65 +26 x66 +23 x67 +48 x68 +26 x69 +6 x70 +55 x71 +90 x72 +95 x73 +71 x74 +45 x75 +2 x76
      +100 x77 +74 x78 +50 x79 +41 x80 +18 x81 +32 x82 +18 x83 +97 x84 +52 x85 +38 x86 +41 x87 +98 x88
      +99 x89 +20 x90 +91 x91 +65 x92 +62 x93 +57 x94 +1 x95 +45 x96 +35 x97 +15 x98 +71 x99 +74 x100
      +90 x101 +44 x102 +61 x103 +8 x104 +42 x105 +81 x106 +88 x107 +70 x108 +24 x109 +48 x110 +4 x111
      +66 x112 +60 x113 +7 x114 +35 x115 +48 x116 +74 x117 +95 x118 +67 x119 +84 x120 +99 x121 +10 x122
      +65 x123 +10 x124 +14 x125 +82 x126 +6 x127 +16 x128 +21 x129 +50 x130 +75 x131 +28 x132 +70 x133
      +91 x134 +75 x135 +28 x136 +4 x137 +82 x138 +47 x139 +29 x140 +41 x141 +85 x142 +2 x143 +98 x144
      +7 x145 +37 x146 +60 x147 +4 x148 +86 x149
Subject to
 c0: +1 x1 +1 x13 +1 x17 +1 x21 +1 x23 +1 x26 +1 x28 +1 x32 +1 x49 +1 x56 +1 x60 +1 x61 +1 x74 +1 x75
  +1 x83 +1 x91 +1 x93 +1 x101 +1 x107 +1 x112 +1 x113 +1 x119 +1 x120 +1 x135 +1 x140 >= +1
 c1: +1 x5 +1 x8 +1 x14 +1 x20 +1 x27 +1 x34 +1 x38 +1 x46 +1 x60 +1 x65 +1 x80 +1 x83 +1 x85 +1 x86 +1 x87
  +1 x93 +1 x97 +1 x106 +1 x109 +1 x110 +1 x114 +1 x135 +1 x140 +1 x144 >= +1
 c2: +1 x2 +1 x18 +1 x19 +1 x21 +1 x22 +1 x26 +1 x49 +1 x56 +1 x60 +1 x67 +1 x72 +1 x75 +1 x81 +1 x85
  +1 x91 +1 x98 +1 x100 +1 x117 +1 x120 +1 x129 >= +1
 c3: +1 x5 +1 x22 +1 x26 +1 x28 +1 x40 +1 x50 +1 x70 +1 x86 +1 x89 +1 x104 +1 x107 +1 x109 +1 x113 +1 x123
  +1 x130 +1 x135 +1 x137 +1 x139 +1 x145 +1 x148 >= +1
 c4: +1 x5 +1 x19 +1 x22 +1 x33 +1 x34 +1 x38 +1 x40 +1 x45 +1 x46 +1 x52 +1 x53 +1 x55 +1 x66 +1 x76
  +1 x78 +1 x81 +1 x83 +1 x84 +1 x96 +1 x106 +1 x116 +1 x139 +1 x148 >= +1
 c5: +1 x0 +1 x6 +1 x8 +1 x13 +1 x18 +1 x19 +1 x35 +1 x36 +1 x45 +1 x47 +1 x51 +1 x54 +1 x65 +1 x68 +1 x101
  +1 x109 +1 x131 +1 x137 +1 x144 >= +1
 c6: +1 x6 +1 x7 +1 x10 +1 x12 +1 x23 +1 x33 +1 x41 +1 x52 +1 x54 +1 x69 +1 x71 +1 x83 +1 x96 +1 x99 +1 x103
  +1 x108 +1 x111 +1 x112 +1 x129 +1 x130 +1 x137 +1 x140 +1 x147 >= +1
 c7: +1 x2 +1 x14 +1 x15 +1 x17 +1 x22 +1 x27 +1 x35 +1 x41 +1 x44 +1 x48 +1 x53 +1 x59 +1 x67 +1 x70
  +1 x74 +1 x84 +1 x92 +1 x95 +1 x107 +1 x130 +1 x131 +1 x133 +1 x139 +1 x142 +1 x145 >= +1
 c8: +1 x6 +1 x7 +1 x8 +1 x9 +1 x16 +1 x19 +1 x22 +1 x23 +1 x30 +1 x34 +1 x35 +1 x48 +1 x50 +1 x51 +1 x55
  +1 x81 +1 x83 +1 x94 +1 x97 +1 x99 +1 x110 +1 x111 +1 x114 +1 x135 +1 x136 +1 x143 >= +1
 c9: +1 x6 +1 x10 +1 x34 +1 x57 +1 x59 +1 x62 +1 x65 +1 x68 +1 x78 +1 x86 +1 x93 +1 x94 +1 x113 +1 x119
  +1 x127 +1 x130 +1 x139 +1 x143 +1 x148 +1 x149 >= +1
 c10: +1 x6 +1 x11 +1 x12 +1 x14 +1 x16 +1 x18 +1 x20 +1 x22 +1 x25 +1 x26 +1 x51 +1 x53 +1 x63 +1 x67
  +1 x73 +1 x87 +1 x89 +1 x107 +1 x110 +1 x112 +1 x114 +1 x117 +1 x131 +1 x136 +1 x145 >= +1
 c11: +1 x1 +1 x43 +1 x44 +1 x59 +1 x72 +1 x79 +1 x82 +1 x92 +1 x96 +1 x118 +1 x133 +1 x135 +1 x140 >= +1
 c12: +1 x1 +1 x7 +1 x12 +1 x15 +1 x17 +1 x21 +1 x24 +1 x25 +1 x32 +1 x39 +1 x40 +1 x45 +1 x58 +1 x61
  +1 x63 +1 x64 +1 x69 +1 x74 +1 x75 +1 x85 +1 x89 +1 x93 +1 x96 +1 x101 +1 x106 +1 x112 +1 x117 +1 x122
  +1 x123 +1 x126 +1 x134 +1 x149 >= +1
 c13: +1 x1 +1 x8 +1 x10 +1 x11 +1 x12 +1 x17 +1 x21 +1 x28 +1 x38 +1 x56 +1 x59 +1 x68 +1 x74 +1 x75
  +1 x77 +1 x80 +1 x82 +1 x85 +1 x89 +1 x91 +1 x94 +1 x96 +1 x98 +1 x113 +1 x121 +1 x124 +1 x127 +1 x132
  +1 x134 +1 x136 +1 x140 +1 x145 +1 x149 >= +1
 c14: +1 x3 +1 x14 +1 x21 +1 x36 +1 x38 +1 x46 +1 x47 +1 x49 +1 x51 +1 x65 +1 x66 +1 x69 +1 x76 +1 x86
  +1 x88 +1 x101 +1 x109 +1 x123 +1 x129 +1 x131 +1 x132 +1 x133 +1 x137 +1 x144 +1 x149 >= +1
 c15: +1 x4 +1 x11 +1 x23 +1 x34 +1 x41 +1 x46 +1 x72 +1 x73 +1 x82 +1 x90 +1 x108 +1 x122 +1 x128 +1 x142
  >= +1
 c16: +1 x3 +1 x10 +1 x18 +1 x21 +1 x26 +1 x27 +1 x30 +1 x32 +1 x47 +1 x50 +1 x51 +1 x62 +1 x72 +1 x73
  +1 x76 +1 x113 +1 x119 +1 x135 +1 x136 +1 x141 +1 x149 >= +1
 c17: +1 x2 +1 x17 +1 x18 +1 x20 +1 x22 +1 x25 +1 x34 +1 x35 +1 x36 +1 x61 +1 x65 +1 x68 +1 x74 +1 x81
  +1 x82 +1 x88 +1 x101 +1 x108 +1 x113 +1 x115 +1 x117 +1 x122 +1 x134 +1 x137 +1 x140 +1 x144 +1 x146
  >= +1
 c18: +1 x3 +1 x7 +1 x10 +1 x12 +1 x22 +1 x29 +1 x34 +1 x36 +1 x44 +1 x45 +1 x48 +1 x53 +1 x60 +1 x67
  +1 x68 +1 x72 +1 x74 +1 x81 +1 x89 +1 x91 +1 x99 +1 x108 +1 x114 +1 x120 +1 x122 +1 x127 >= +1
 c19: +1 x1 +1 x6 +1 x8 +1 x23 +1 x35 +1 x42 +1 x45 +1 x46 +1 x52 +1 x54 +1 x55 +1 x70 +1 x84 +1 x89 +1 x91
  +1 x92 +1 x95 +1 x98 +1 x108 +1 x115 +1 x119 +1 x123 +1 x125 +1 x126 +1 x131 +1 x141 +1 x143 >= +1
 c20: +1 x3 +1 x7 +1 x18 +1 x24 +1 x26 +1 x33 +1 x52 +1 x77 +1 x83 +1 x88 +1 x91 +1 x92 +1 x94 +1 x103
  +1 x108 +1 x128 +1 x145 >= +1
 c21: +1 x2 +1 x11 +1 x14 +1 x33 +1 x41 +1 x50 +1 x55 +1 x58 +1 x60 +1 x61 +1 x62 +1 x69 +1 x72 +1 x81
  +1 x82 +1 x88 +1 x92 +1 x101 +1 x110 +1 x124 +1 x142 >= +1
 c22: +1 x3 +1 x13 +1 x15 +1 x20 +1 x44 +1 x48 +1 x51 +1 x64 +1 x65 +1 x78 +1 x89 +1 x95 +1 x97 +1 x108
  +1 x109 +1 x113 +1 x115 +1 x116 +1 x121 +1 x124 +1 x125 >= +1
 c23: +1 x2 +1 x7 +1 x8 +1 x17 +1 x23 +1 x36 +1 x43 +1 x44 +1 x45 +1 x52 +1 x54 +1 x63 +1 x68 +1 x75 +1 x78
  +1 x86 +1 x88 +1 x102 +1 x105 +1 x129 +1 x135 +1 x140 +1 x149 >= +1
 c24: +1 x3 +1 x22 +1 x29 +1 x33 +1 x47 +1 x57 +1 x58 +1 x69 +1 x76 +1 x82 +1 x85 +1 x89 +1 x118 +1 x120
  +1 x123 +1 x124 +1 x143 +1 x147 +1 x148 >= +1
 c25: +1 x1 +1 x13 +1 x14 +1 x16 +1 x43 +1 x55 +1 x77 +1 x78 +1 x83 +1 x84 +1 x89 +1 x94 +1 x97 +1 x102
  +1 x104 +1 x111 +1 x119 +1 x122 +1 x124 +1 x134 +1 x146 +1 x148 >= +1
 c26: +1 x1 +1 x6 +1 x14 +1 x20 +1 x27 +1 x38 +1 x40 +1 x56 +1 x69 +1 x80 +1 x90 +1 x91 +1 x95 +1 x105
  +1 x106 +1 x109 +1 x112 +1 x115 +1 x122 +1 x125 +1 x127 +1 x142 +1 x145 >= +1
 c27: +1 x5 +1 x9 +1 x17 +1 x26 +1 x34 +1 x37 +1 x39 +1 x40 +1 x59 +1 x65 +1 x77 +1 x79 +1 x83 +1 x88
  +1 x102 +1 x111 +1 x116 +1 x118 +1 x124 +1 x129 +1 x141 +1 x143 >= +1
 c28: +1 x2 +1 x10 +1 x12 +1 x23 +1 x25 +1 x38 +1 x78 +1 x79 +1 x81 +1 x85 +1 x98 +1 x99 +1 x102 +1 x108
  +1 x113 +1 x115 +1 x124 +1 x132 +1 x134 +1 x140 +1 x145 >= +1
 c29: +1 x3 +1 x7 +1 x26 +1 x27 +1 x39 +1 x47 +1 x50 +1 x55 +1 x56 +1 x60 +1 x68 +1 x70 +1 x83 +1 x84
  +1 x88 +1 x92 +1 x102 +1 x117 +1 x132 +1 x141 +1 x142 +1 x143 >= +1
 c30: +1 x0 +1 x8 +1 x12 +1 x18 +1 x19 +1 x29 +1 x32 +1 x55 +1 x59 +1 x63 +1 x65 +1 x76 +1 x84 +1 x85
  +1 x91 +1 x96 +1 x99 +1 x114 +1 x124 +1 x129 +1 x132 +1 x140 +1 x141 >= +1
 c31: +1 x4 +1 x13 +1 x27 +1 x32 +1 x34 +1 x37 +1 x73 +1 x84 +1 x88 +1 x98 +1 x103 +1 x105 +1 x106 +1 x117
  +1 x118 +1 x119 +1 x127 +1 x130 +1 x134 +1 x145 >= +1
 c32: +1 x2 +1 x12 +1 x17 +1 x25 +1 x26 +1 x33 +1 x56 +1 x57 +1 x58 +1 x73 +1 x76 +1 x96 +1 x99 +1 x104
  +1 x105 +1 x106 +1 x109 +1 x127 +1 x134 +1 x135 +1 x141 +1 x148 >= +1
 c33: +1 x4 +1 x21 +1 x27 +1 x40 +1 x45 +1 x47 +1 x49 +1 x59 +1 x60 +1 x73 +1 x77 +1 x83 +1 x103 +1 x109
  +1 x122 +1 x127 +1 x132 +1 x136 +1 x138 +1 x139 +1 x140 >= +1
 c34: +1 x5 +1 x7 +1 x8 +1 x9 +1 x45 +1 x49 +1 x53 +1 x69 +1 x78 +1 x83 +1 x96 +1 x104 +1 x112 +1 x113
  +1 x115 +1 x121 +1 x122 +1 x124 +1 x143 >= +1
 c35: +1 x2 +1 x8 +1 x9 +1 x18 +1 x31 +1 x52 +1 x53 +1 x61 +1 x75 +1 x78 +1 x83 +1 x98 +1 x105 +1 x106
  +1 x108 +1 x109 +1 x112 +1 x115 +1 x125 +1 x128 >= +1
 c36: +1 x1 +1 x8 +1 x11 +1 x12 +1 x19 +1 x24 +1 x27 +1 x37 +1 x43 +1 x58 +1 x70 +1 x73 +1 x87 +1 x94
  +1 x111 +1 x113 +1 x121 +1 x126 +1 x129 +1 x133 +1 x139 +1 x140 +1 x141 >= +1
 c37: +1 x5 +1 x10 +1 x12 +1 x19 +1 x23 +1 x27 +1 x33 +1 x35 +1 x39 +1 x47 +1 x55 +1 x63 +1 x64 +1 x67
  +1 x72 +1 x73 +1 x80 +1 x100 +1 x101 +1 x104 +1 x109 +1 x111 +1 x116 +1 x130 +1 x135 +1 x137 +1 x143
  +1 x144 >= +1
 c38: +1 x0 +1 x19 +1 x20 +1 x36 +1 x37 +1 x41 +1 x47 +1 x51 +1 x53 +1 x58 +1 x70 +1 x74 +1 x93 +1 x94
  +1 x97 +1 x98 +1 x118 +1 x119 +1 x120 +1 x121 +1 x137 +1 x143 >= +1
 c39: +1 x0 +1 x7 +1 x8 +1 x9 +1 x27 +1 x44 +1 x54 +1 x64 +1 x67 +1 x68 +1 x75 +1 x76 +1 x86 +1 x95 +1 x108
  +1 x111 +1 x116 +1 x120 +1 x126 +1 x127 +1 x134 +1 x147 +1 x148 >= +1
 c40: +1 x2 +1 x10 +1 x14 +1 x15 +1 x22 +1 x30 +1 x32 +1 x37 +1 x42 +1 x47 +1 x48 +1 x50 +1 x55 +1 x62
  +1 x70 +1 x78 +1 x86 +1 x89 +1 x90 +1 x91 +1 x96 +1 x100 +1 x118 +1 x121 +1 x122 +1 x128 +1 x141 +1 x147
  +1 x149 >= +1
 c41: +1 x0 +1 x12 +1 x15 +1 x20 +1 x28 +1 x34 +1 x40 +1 x41 +1 x54 +1 x56 +1 x64 +1 x66 +1 x71 +1 x77
  +1 x79 +1 x87 +1 x89 +1 x90 +1 x94 +1 x120 +1 x128 +1 x129 +1 x130 +1 x132 +1 x135 +1 x136 +1 x139 +1 x147
  >= +1
 c42: +1 x4 +1 x16 +1 x27 +1 x67 +1 x73 +1 x80 +1 x83 +1 x110 +1 x115 +1 x117 +1 x118 +1 x120 +1 x124
  +1 x128 +1 x133 +1 x147 +1 x148 >= +1
 c43: +1 x1 +1 x18 +1 x19 +1 x30 +1 x33 +1 x41 +1 x53 +1 x54 +1 x56 +1 x57 +1 x63 +1 x65 +1 x72 +1 x82
  +1 x93 +1 x102 +1 x105 +1 x110 +1 x117 +1 x124 +1 x133 >= +1
 c44: +1 x4 +1 x12 +1 x31 +1 x32 +1 x40 +1 x46 +1 x48 +1 x49 +1 x56 +1 x59 +1 x61 +1 x71 +1 x89 +1 x95
  +1 x104 +1 x105 +1 x113 +1 x114 +1 x118 +1 x126 +1 x132 >= +1
 c45: +1 x2 +1 x8 +1 x15 +1 x18 +1 x19 +1 x25 +1 x35 +1 x40 +1 x47 +1 x59 +1 x62 +1 x75 +1 x77 +1 x79
  +1 x82 +1 x85 +1 x92 +1 x93 +1 x94 +1 x102 +1 x111 +1 x115 +1 x127 +1 x132 +1 x137 +1 x144 +1 x145 >= +1
 c46: +1 x1 +1 x13 +1 x14 +1 x20 +1 x24 +1 x26 +1 x38 +1 x50 +1 x62 +1 x75 +1 x81 +1 x113 +1 x118 +1 x136
  +1 x140 +1 x141 >= +1
 c47: +1 x5 +1 x8 +1 x12 +1 x24 +1 x27 +1 x29 +1 x33 +1 x36 +1 x43 +1 x48 +1 x51 +1 x53 +1 x55 +1 x56
  +1 x61 +1 x66 +1 x80 +1 x90 +1 x94 +1 x97 +1 x103 +1 x104 +1 x112 +1 x121 +1 x123 +1 x126 +1 x132 +1 x137
  +1 x138 +1 x146 >= +1
 c48: +1 x2 +1 x8 +1 x19 +1 x22 +1 x25 +1 x32 +1 x41 +1 x48 +1 x50 +1 x52 +1 x59 +1 x69 +1 x83 +1 x86
  +1 x89 +1 x92 +1 x112 +1 x121 +1 x122 +1 x127 +1 x129 +1 x132 +1 x133 +1 x136 >= +1
 c49: +1 x5 +1 x34 +1 x37 +1 x46 +1 x48 +1 x49 +1 x56 +1 x57 +1 x63 +1 x70 +1 x71 +1 x80 +1 x81 +1 x90
  +1 x92 +1 x105 +1 x109 +1 x121 +1 x135 >= +1
 c50: +1 x0 +1 x14 +1 x18 +1 x22 +1 x30 +1 x40 +1 x53 +1 x57 +1 x68 +1 x71 +1 x80 +1 x87 +1 x90 +1 x99
  +1 x108 +1 x121 +1 x137 +1 x138 +1 x139 +1 x142 >= +1
 c51: +1 x4 +1 x10 +1 x13 +1 x15 +1 x18 +1 x19 +1 x21 +1 x24 +1 x30 +1 x41 +1 x45 +1 x55 +1 x56 +1 x68
  +1 x71 +1 x74 +1 x89 +1 x93 +1 x96 +1 x104 +1 x109 +1 x112 +1 x131 +1 x137 +1 x139 +1 x149 >= +1
 c52: +1 x5 +1 x13 +1 x16 +1 x31 +1 x37 +1 x38 +1 x41 +1 x43 +1 x49 +1 x54 +1 x62 +1 x65 +1 x75 +1 x86
  +1 x90 +1 x96 +1 x97 +1 x102 +1 x106 +1 x111 +1 x117 +1 x130 +1 x133 +1 x147 >= +1
 c53: +1 x1 +1 x8 +1 x10 +1 x17 +1 x29 +1 x34 +1 x35 +1 x39 +1 x43 +1 x51 +1 x60 +1 x79 +1 x89 +1 x92
  +1 x96 +1 x100 +1 x101 +1 x102 +1 x107 +1 x109 +1 x110 +1 x112 +1 x115 +1 x121 +1 x132 +1 x139 +1 x146
  >= +1
 c54: +1 x5 +1 x16 +1 x48 +1 x51 +1 x59 +1 x62 +1 x64 +1 x65 +1 x74 +1 x76 +1 x85 +1 x92 +1 x97 +1 x98
  +1 x99 +1 x102 +1 x106 +1 x112 +1 x116 +1 x124 +1 x127 +1 x129 +1 x136 +1 x137 +1 x138 +1 x149 >= +1
 c55: +1 x0 +1 x10 +1 x15 +1 x19 +1 x23 +1 x24 +1 x25 +1 x37 +1 x38 +1 x40 +1 x43 +1 x58 +1 x77 +1 x78
  +1 x95 +1 x97 +1 x115 +1 x122 +1 x128 +1 x141 +1 x144 +1 x145 +1 x148 +1 x149 >= +1
 c56: +1 x0 +1 x11 +1 x33 +1 x37 +1 x40 +1 x41 +1 x51 +1 x53 +1 x68 +1 x73 +1 x78 +1 x87 +1 x107 +1 x115
  +1 x125 +1 x141 +1 x146 >= +1
 c57: +1 x3 +1 x7 +1 x12 +1 x20 +1 x22 +1 x27 +1 x31 +1 x40 +1 x48 +1 x50 +1 x56 +1 x62 +1 x63 +1 x66
  +1 x69 +1 x77 +1 x79 +1 x83 +1 x84 +1 x94 +1 x106 +1 x107 +1 x109 +1 x117 +1 x123 +1 x125 +1 x138 +1 x139
  >= +1
 c58: +1 x6 +1 x19 +1 x23 +1 x26 +1 x31 +1 x34 +1 x36 +1 x51 +1 x53 +1 x75 +1 x76 +1 x80 +1 x87 +1 x109
  +1 x120 +1 x125 +1 x126 +1 x130 +1 x133 +1 x134 +1 x139 >= +1
 c59: +1 x4 +1 x8 +1 x13 +1 x15 +1 x20 +1 x26 +1 x27 +1 x35 +1 x41 +1 x52 +1 x58 +1 x60 +1 x62 +1 x92
  +1 x107 +1 x120 +1 x125 +1 x126 +1 x129 +1 x135 +1 x139 +1 x142 +1 x148 >= +1
 c60: +1 x0 +1 x6 +1 x16 +1 x21 +1 x31 +1 x34 +1 x43 +1 x50 +1 x53 +1 x68 +1 x75 +1 x82 +1 x83 +1 x98
  +1 x102 +1 x117 +1 x119 +1 x133 >= +1
 c61: +1 x1 +1 x15 +1 x16 +1 x27 +1 x30 +1 x32 +1 x33 +1 x44 +1 x45 +1 x64 +1 x79 +1 x85 +1 x88 +1 x92
  +1 x99 +1 x100 +1 x129 +1 x130 >= +1
 c62: +1 x3 +1 x8 +1 x9 +1 x25 +1 x27 +1 x38 +1 x40 +1 x42 +1 x68 +1 x70 +1 x72 +1 x92 +1 x98 +1 x107
  +1 x110 +1 x137 >= +1
 c63: +1 x5 +1 x17 +1 x28 +1 x35 +1 x41 +1 x44 +1 x45 +1 x57 +1 x67 +1 x74 +1 x78 +1 x79 +1 x83 +1 x85
  +1 x92 +1 x94 +1 x111 +1 x130 +1 x132 +1 x134 +1 x141 +1 x149 >= +1
 c64: +1 x6 +1 x8 +1 x19 +1 x37 +1 x38 +1 x40 +1 x47 +1 x48 +1 x49 +1 x51 +1 x63 +1 x66 +1 x68 +1 x83
  +1 x90 +1 x91 +1 x94 +1 x105 +1 x112 +1 x114 +1 x137 +1 x142 +1 x146 >= +1
 c65: +1 x1 +1 x6 +1 x11 +1 x13 +1 x18 +1 x25 +1 x29 +1 x31 +1 x34 +1 x36 +1 x38 +1 x40 +1 x43 +1 x45
  +1 x46 +1 x51 +1 x64 +1 x68 +1 x87 +1 x102 +1 x103 +1 x111 +1 x121 +1 x136 +1 x145 +1 x149 >= +1
 c66: +1 x4 +1 x20 +1 x24 +1 x29 +1 x36 +1 x42 +1 x58 +1 x97 +1 x112 +1 x124 +1 x126 +1 x129 +1 x135 +1 x139
  +1 x143 +1 x148 >= +1
 c67: +1 x5 +1 x10 +1 x26 +1 x27 +1 x29 +1 x30 +1 x33 +1 x41 +1 x54 +1 x66 +1 x70 +1 x72 +1 x90 +1 x109
  +1 x118 +1 x124 +1 x125 +1 x134 >= +1
 c68: +1 x5 +1 x7 +1 x32 +1 x36 +1 x44 +1 x55 +1 x69 +1 x74 +1 x81 +1 x82 +1 x98 +1 x105 +1 x106 +1 x115
  +1 x117 +1 x121 +1 x132 +1 x136 +1 x143 +1 x144 +1 x146 >= +1
 c69: +1 x0 +1 x11 +1 x15 +1 x25 +1 x30 +1 x32 +1 x42 +1 x51 +1 x58 +1 x80 +1 x81 +1 x83 +1 x85 +1 x93
  +1 x98 +1 x101 +1 x102 +1 x112 +1 x114 +1 x126 +1 x129 +1 x135 +1 x136 +1 x144 >= +1
 c70: +1 x4 +1 x12 +1 x13 +1 x22 +1 x33 +1 x35 +1 x42 +1 x43 +1 x44 +1 x46 +1 x51 +1 x62 +1 x64 +1 x76
  +1 x78 +1 x81 +1 x85 +1 x92 +1 x110 +1 x121 +1 x125 +1 x127 +1 x129 +1 x132 +1 x143 +1 x146 >= +1
 c71: +1 x1 +1 x7 +1 x16 +1 x18 +1 x23 +1 x29 +1 x31 +1 x34 +1 x38 +1 x57 +1 x64 +1 x67 +1 x81 +1 x89
  +1 x99 +1 x102 +1 x103 +1 x105 +1 x108 +1 x114 +1 x124 +1 x125 +1 x126 +1 x138 +1 x140 >= +1
 c72: +1 x1 +1 x7 +1 x8 +1 x9 +1 x13 +1 x26 +1 x27 +1 x41 +1 x48 +1 x51 +1 x58 +1 x70 +1 x73 +1 x90 +1 x97
  +1 x99 +1 x101 +1 x108 +1 x115 +1 x119 +1 x135 +1 x140 >= +1
 c73: +1 x3 +1 x19 +1 x21 +1 x22 +1 x25 +1 x28 +1 x30 +1 x38 +1 x47 +1 x63 +1 x70 +1 x72 +1 x76 +1 x84
  +1 x95 +1 x101 +1 x103 +1 x110 +1 x116 +1 x123 +1 x130 +1 x141 +1 x147 >= +1
 c74: +1 x3 +1 x14 +1 x16 +1 x25 +1 x41 +1 x42 +1 x52 +1 x68 +1 x71 +1 x78 +1 x82 +1 x84 +1 x91 +1 x99
  +1 x103 +1 x112 +1 x119 +1 x120 +1 x123 +1 x130 +1 x135 +1 x144 >= +1
 c75: +1 x3 +1 x7 +1 x8 +1 x19 +1 x28 +1 x31 +1 x46 +1 x68 +1 x69 +1 x76 +1 x91 +1 x98 +1 x116 +1 x132
  +1 x139 +1 x140 +1 x143 +1 x149 >= +1
 c76: +1 x1 +1 x12 +1 x18 +1 x22 +1 x36 +1 x37 +1 x52 +1 x54 +1 x55 +1 x60 +1 x70 +1 x74 +1 x75 +1 x87
  +1 x92 +1 x98 +1 x113 +1 x122 +1 x125 +1 x130 +1 x132 +1 x136 +1 x137 +1 x142 >= +1
 c77: +1 x6 +1 x10 +1 x13 +1 x28 +1 x35 +1 x52 +1 x80 +1 x86 +1 x88 +1 x97 +1 x98 +1 x104 +1 x107 +1 x133
  +1 x134 +1 x147 >= +1
 c78: +1 x3 +1 x22 +1 x34 +1 x43 +1 x49 +1 x50 +1 x56 +1 x57 +1 x73 +1 x74 +1 x101 +1 x110 +1 x116 +1 x127
  >= +1
 c79: +1 x3 +1 x7 +1 x10 +1 x17 +1 x20 +1 x27 +1 x28 +1 x33 +1 x46 +1 x48 +1 x51 +1 x63 +1 x82 +1 x85
  +1 x87 +1 x102 +1 x120 +1 x121 +1 x123 +1 x128 +1 x130 +1 x135 +1 x147 >= +1
 c80: +1 x0 +1 x19 +1 x29 +1 x34 +1 x35 +1 x36 +1 x39 +1 x44 +1 x50 +1 x63 +1 x67 +1 x71 +1 x72 +1 x73
  +1 x93 +1 x100 +1 x110 +1 x115 +1 x121 +1 x123 +1 x130 +1 x138 +1 x142 +1 x146 +1 x147 +1 x148 >= +1
 c81: +1 x4 +1 x12 +1 x24 +1 x39 +1 x68 +1 x72 +1 x76 +1 x79 +1 x85 +1 x97 +1 x105 +1 x113 +1 x122 +1 x127
  +1 x133 +1 x134 +1 x144 +1 x147 +1 x149 >= +1
 c82: +1 x0 +1 x8 +1 x9 +1 x11 +1 x16 +1 x20 +1 x24 +1 x31 +1 x41 +1 x64 +1 x66 +1 x67 +1 x68 +1 x73 +1 x76
  +1 x86 +1 x88 +1 x100 +1 x107 +1 x116 +1 x121 +1 x125 >= +1
 c83: +1 x2 +1 x10 +1 x13 +1 x27 +1 x35 +1 x40 +1 x44 +1 x54 +1 x61 +1 x65 +1 x72 +1 x75 +1 x78 +1 x84
  +1 x86 +1 x91 +1 x105 +1 x108 +1 x110 +1 x119 +1 x144 +1 x149 >= +1
 c84: +1 x0 +1 x8 +1 x10 +1 x12 +1 x16 +1 x29 +1 x36 +1 x38 +1 x40 +1 x50 +1 x52 +1 x59 +1 x63 +1 x65
  +1 x70 +1 x73 +1 x75 +1 x77 +1 x82 +1 x83 +1 x88 +1 x105 +1 x107 +1 x108 +1 x110 +1 x112 +1 x114 +1 x118
  +1 x121 +1 x125 +1 x128 +1 x132 +1 x141 >= +1
 c85: +1 x4 +1 x15 +1 x17 +1 x20 +1 x30 +1 x32 +1 x33 +1 x45 +1 x52 +1 x60 +1 x65 +1 x72 +1 x78 +1 x90
  +1 x98 +1 x99 +1 x101 +1 x105 +1 x115 +1 x139 +1 x143 >= +1
 c86: +1 x3 +1 x11 +1 x14 +1 x23 +1 x26 +1 x35 +1 x43 +1 x44 +1 x49 +1 x57 +1 x59 +1 x63 +1 x65 +1 x69
  +1 x96 +1 x105 +1 x107 +1 x117 +1 x119 +1 x123 +1 x124 +1 x128 +1 x133 +1 x141 +1 x148 >= +1
 c87: +1 x5 +1 x8 +1 x14 +1 x27 +1 x29 +1 x42 +1 x43 +1 x58 +1 x63 +1 x69 +1 x78 +1 x79 +1 x85 +1 x103
  +1 x114 +1 x117 +1 x129 +1 x132 +1 x139 +1 x140 +1 x147 >= +1
 c88: +1 x5 +1 x14 +1 x15 +1 x20 +1 x25 +1 x50 +1 x56 +1 x63 +1 x71 +1 x91 +1 x95 +1 x107 +1 x111 +1 x126
  +1 x138 +1 x142 +1 x148 >= +1
 c89: +1 x1 +1 x15 +1 x19 +1 x29 +1 x32 +1 x41 +1 x49 +1 x51 +1 x52 +1 x66 +1 x71 +1 x72 +1 x73 +1 x76
  +1 x83 +1 x93 +1 x117 +1 x118 +1 x122 +1 x148 >= +1
 c90: +1 x2 +1 x7 +1 x20 +1 x31 +1 x48 +1 x65 +1 x80 +1 x90 +1 x98 +1 x105 +1 x117 +1 x118 +1 x119 +1 x121
  +1 x122 +1 x124 +1 x125 +1 x126 +1 x136 +1 x139 +1 x143 +1 x144 +1 x146 >= +1
 c91: +1 x3 +1 x7 +1 x10 +1 x15 +1 x31 +1 x43 +1 x58 +1 x59 +1 x62 +1 x70 +1 x79 +1 x84 +1 x93 +1 x96
  +1 x99 +1 x102 +1 x127 +1 x129 +1 x144 >= +1
 c92: +1 x2 +1 x13 +1 x15 +1 x18 +1 x20 +1 x22 +1 x40 +1 x45 +1 x47 +1 x51 +1 x54 +1 x60 +1 x65 +1 x71
  +1 x72 +1 x76 +1 x78 +1 x90 +1 x97 +1 x109 +1 x116 +1 x131 +1 x134 +1 x139 +1 x142 >= +1
 c93: +1 x4 +1 x11 +1 x16 +1 x27 +1 x31 +1 x41 +1 x44 +1 x52 +1 x61 +1 x75 +1 x80 +1 x86 +1 x97 +1 x109
  +1 x110 +1 x113 +1 x115 +1 x118 +1 x119 +1 x122 +1 x131 +1 x133 +1 x134 +1 x142 +1 x147 >= +1
 c94: +1 x3 +1 x9 +1 x15 +1 x18 +1 x19 +1 x24 +1 x28 +1 x32 +1 x33 +1 x39 +1 x40 +1 x58 +1 x61 +1 x64
  +1 x75 +1 x80 +1 x96 +1 x99 +1 x100 +1 x106 +1 x109 +1 x119 +1 x131 +1 x144 +1 x148 >= +1
 c95: +1 x4 +1 x7 +1 x9 +1 x23 +1 x25 +1 x27 +1 x29 +1 x34 +1 x45 +1 x46 +1 x55 +1 x58 +1 x62 +1 x69 +1 x71
  +1 x74 +1 x101 +1 x109 +1 x111 +1 x117 +1 x119 +1 x121 +1 x126 +1 x127 +1 x129 +1 x131 +1 x146 +1 x147
  >= +1
 c96: +1 x0 +1 x7 +1 x8 +1 x16 +1 x23 +1 x28 +1 x30 +1 x47 +1 x48 +1 x62 +1 x63 +1 x69 +1 x70 +1 x79 +1 x86
  +1 x93 +1 x96 +1 x101 +1 x102 +1 x113 +1 x119 +1 x130 +1 x131 +1 x142 >= +1
 c97: +1 x4 +1 x8 +1 x9 +1 x13 +1 x15 +1 x23 +1 x27 +1 x48 +1 x52 +1 x55 +1 x64 +1 x76 +1 x89 +1 x95 +1 x108
  +1 x115 +1 x118 +1 x130 +1 x134 +1 x135 +1 x143 >= +1
 c98: +1 x1 +1 x6 +1 x24 +1 x27 +1 x28 +1 x30 +1 x32 +1 x33 +1 x38 +1 x47 +1 x59 +1 x62 +1 x75 +1 x76
  +1 x78 +1 x92 +1 x99 +1 x101 +1 x106 +1 x109 +1 x110 +1 x129 +1 x130 +1 x134 +1 x138 +1 x139 >= +1
 c99: +1 x6 +1 x8 +1 x10 +1 x27 +1 x33 +1 x42 +1 x48 +1 x57 +1 x58 +1 x65 +1 x69 +1 x70 +1 x76 +1 x86
  +1 x93 +1 x94 +1 x95 +1 x98 +1 x107 +1 x114 +1 x115 +1 x120 +1 x122 +1 x131 +1 x142 >= +1
Bounds
 0 <= x0 <= 1
 0 <= x1 <= 1
 0 <= x2 <= 1
 0 <= x3 <= 1
 0 <= x4 <= 1
 0 <= x5 <= 1
 0 <= x6 <= 1
 0 <= x7 <= 1
 0 <= x8 <= 1
 0 <= x9 <= 1
 0 <= x10 <= 1
 0 <= x11 <= 1
 0 <= x12 <= 1
 0 <= x13 <= 1
 0 <= x14 <= 1
 0 <= x15 <= 1
 0 <= x16 <= 1
 0 <= x17 <= 1
 0 <= x18 <= 1
 0 <= x19 <= 1
 0 <= x20 <= 1
 0 <= x21 <= 1
 0 <= x22 <= 1
 0 <= x23 <= 1
 0 <= x24 <= 1
 0 <= x25 <= 1
 0 <= x26 <= 1
 0 <= x27 <= 1
 0 <= x28 <= 1
 0 <= x29 <= 1
 0 <= x30 <= 1
 0 <= x31 <= 1
 0 <= x32 <= 1
 0 <= x33 <= 1
 0 <= x34 <= 1
 0 <= x35 <= 1
 0 <= x36 <= 1
 0 <= x37 <= 1
 0 <= x38 <= 1
 0 <= x39 <= 1
 0 <= x40 <= 1
 0 <= x41 <= 1
 0 <= x42 <= 1
 0 <= x43 <= 1
 0 <= x44 <= 1
 0 <= x45 <= 1
 0 <= x46 <= 1
 0 <= x47 <= 1
 0 <= x48 <= 1
 0 <= x49 <= 1
 0 <= x50 <= 1
 0 <= x51 <= 1
 0 <= x52 <= 1
 0 <= x53 <= 1
 0 <= x54 <= 1
 0 <= x55 <= 1
 0 <= x56 <= 1
 0 <= x57 <= 1
 0 <= x58 <= 1
 0 <= x59 <= 1
 0 <= x60 <= 1
 0 <= x61 <= 1
 0 <= x62 <= 1
 0 <= x63 <= 1
 0 <= x64 <= 1
 0 <= x65 <= 1
 0 <= x66 <= 1
 0 <= x67 <= 1
 0 <= x68 <= 1
 0 <= x69 <= 1
 0 <= x70 <= 1
 0 <= x71 <= 1
 0 <= x72 <= 1
 0 <= x73 <= 1
 0 <= x74 <= 1
 0 <= x75 <= 1
 0 <= x76 <= 1
 0 <= x77 <= 1
 0 <= x78 <= 1
 0 <= x79 <= 1
 0 <= x80 <= 1
 0 <= x81 <= 1
 0 <= x82 <= 1
 0 <= x83 <= 1
 0 <= x84 <= 1
 0 <= x85 <= 1
 0 <= x86 <= 1
 0 <= x87 <= 1
 0 <= x88 <= 1
 0 <= x89 <= 1
 0 <= x90 <= 1
 0 <= x91 <= 1
 0 <= x92 <= 1
 0 <= x93 <= 1
 0 <= x94 <= 1
 0 <= x95 <= 1
 0 <= x96 <= 1
 0 <= x97 <= 1
 0 <= x98 <= 1
 0 <= x99 <= 1
 0 <= x100 <= 1
 0 <= x101 <= 1
 0 <= x102 <= 1
 0 <= x103 <= 1
 0 <= x104 <= 1
 0 <= x105 <= 1
 0 <= x106 <= 1
 0 <= x107 <= 1
 0 <= x108 <= 1
 0 <= x109 <= 1
 0 <= x110 <= 1
 0 <= x111 <= 1
 0 <= x112 <= 1
 0 <= x113 <= 1
 0 <= x114 <= 1
 0 <= x115 <= 1
 0 <= x116 <= 1
 0 <= x117 <= 1
 0 <= x118 <= 1
 0 <= x119 <= 1
 0 <= x120 <= 1
 0 <= x121 <= 1
 0 <= x122 <= 1
 0 <= x123 <= 1
 0 <= x124 <= 1
 0 <= x125 <= 1
 0 <= x126 <= 1
 0 <= x127 <= 1
 0 <= x128 <= 1
 0 <= x129 <= 1
 0 <= x130 <= 1
 0 <= x131 <= 1
 0 <= x132 <= 1
 0 <= x133 <= 1
 0 <= x134 <= 1
 0 <= x135 <= 1
 0 <= x136 <= 1
 0 <= x137 <= 1
 0 <= x138 <= 1
 0 <= x139 <= 1
 0 <= x140 <= 1
 0 <= x141 <= 1
 0 <= x142 <= 1
 0 <= x143 <= 1
 0 <= x144 <= 1
 0 <= x145 <= 1
 0 <= x146 <= 1
 0 <= x147 <= 1
 0 <= x148 <= 1
 0 <= x149 <= 1
Binaries
 x0 x1 x2 x3 x4 x5 x6 x7 x8 x9 x10 x11 x12 x13 x14 x15 x16 x17 x18 x19 x20 x21 x22 x23 x24 x25 x26 x27
 x28 x29 x30 x31 x32 x33 x34 x35 x36 x37 x38 x39 x40 x41 x42 x43 x44 x45 x46 x47 x48 x49 x50 x51 x52 x53
 x54 x55 x56 x57 x58 x59 x60 x61 x62 x63 x64 x65 x66 x67 x68 x69 x70 x71 x72 x73 x74 x75 x76 x77 x78 x79
 x80 x81 x82 x83 x84 x85 x86 x87 x88 x89 x90 x91 x92 x93 x94 x95 x96 x97 x98 x99 x100 x101 x102 x103 x104
 x105 x106 x107 x108 x109 x110 x111 x112 x113 x114 x115 x116 x117 x118 x119 x120 x121 x122 x123 x124 x125
 x126 x127 x128 x129 x130 x131 x132 x133 x134 x135 x136 x137 x138 x139 x140 x141 x142 x143 x144 x145 x146
 x147 x148 x149
End
